NAME : 10_3_3_2_(33).dat
COMMENT : Henke, Speranza, Wäscher, 2015
TYPE : MCVRP
DIMENSION : 11
EDGE_WEIGHT_TYPE : DISTANCE_MATRIX
CAPACITY : 1000
VEHICLES : 2
PRODUCT TYPES : 3
COMPARTMENTS : 3
NODE_COORD_SECTION
1 50 50
2 63.12 72.01
3 5.98 70.65
4 38.25 58.25
5 49.16 57.16
6 54.54 26.87
7 23.82 62.35
8 19.55 4.29
9 69.89 70.95
10 6.33 70.57
11 44.62 1.39
DEMAND_SECTION
1 0 0 0
2 131 15 0
3 96 10 0
4 26 0 48
5 98 65 0
6 0 39 15
7 87 0 11
8 0 80 182
9 113 60 0
10 79 44 0
11 12 72 0
DEPOT_SECTION
1
EOF